NAME : Unnamed.381.tour
COMMENT : Length = 381
COMMENT : Found by LKH [Keld Helsgaun] Thu Oct 02 13:46:52 2014
TYPE : TOUR
DIMENSION : 19
TOUR_SECTION
1
15
6
3
10
14
13
16
12
11
18
17
4
7
9
8
2
5
19
-1
EOF
